language Essence 1.3

letting class be
        function(1 --> 2, 2 --> 6, 3 --> 5, 4 --> 4, 5 --> 3, 6 --> 4, 7 --> 4, 8 --> 6, 9 --> 5, 10 --> 7, 11 --> 2,
                 12 --> 10, 13 --> 1, 14 --> 1, 15 --> 10, 16 --> 10, 17 --> 9, 18 --> 10, 19 --> 4, 20 --> 10,
                 21 --> 10, 22 --> 8, 23 --> 9, 24 --> 7, 25 --> 6, 26 --> 4, 27 --> 9)
letting deck_length be 87
letting deck_width be 33
letting length be
        function(1 --> 1, 2 --> 1, 3 --> 1, 4 --> 2, 5 --> 3, 6 --> 1, 7 --> 1, 8 --> 1, 9 --> 24, 10 --> 1, 11 --> 1,
                 12 --> 4, 13 --> 11, 14 --> 1, 15 --> 1, 16 --> 1, 17 --> 1, 18 --> 1, 19 --> 2, 20 --> 3, 21 --> 1,
                 22 --> 1, 23 --> 1, 24 --> 1, 25 --> 1, 26 --> 1, 27 --> 1)
letting n_classes be 10
letting n_containers be 27
letting separation be function()
letting width be
        function(1 --> 28, 2 --> 5, 3 --> 12, 4 --> 32, 5 --> 2, 6 --> 15, 7 --> 7, 8 --> 24, 9 --> 33, 10 --> 27,
                 11 --> 10, 12 --> 27, 13 --> 33, 14 --> 2, 15 --> 28, 16 --> 24, 17 --> 25, 18 --> 19, 19 --> 15,
                 20 --> 29, 21 --> 3, 22 --> 2, 23 --> 31, 24 --> 13, 25 --> 11, 26 --> 20, 27 --> 23)
